Set parameter Username
Academic license - for non-commercial use only - expires 2024-12-10
Set parameter LazyConstraints to value 1
Set parameter TimeLimit to value 600
Gurobi Optimizer version 10.0.0 build v10.0.0rc2 (linux64)

CPU model: Intel(R) Core(TM) i5-4590 CPU @ 3.30GHz, instruction set [SSE2|AVX|AVX2]
Thread count: 4 physical cores, 4 logical processors, using up to 4 threads

Optimize a model with 638 rows, 150 columns and 747 nonzeros
Model fingerprint: 0x326225c0
Variable types: 0 continuous, 150 integer (150 binary)
Coefficient statistics:
  Matrix range     [1e+00, 1e+00]
  Objective range  [1e+00, 1e+01]
  Bounds range     [1e+00, 1e+00]
  RHS range        [1e+00, 1e+00]
Presolve removed 604 rows and 3 columns
Presolve time: 0.00s
Presolved: 34 rows, 147 columns, 141 nonzeros
Variable types: 0 continuous, 147 integer (147 binary)

Root relaxation: objective 8.800000e+01, 30 iterations, 0.00 seconds (0.00 work units)

    Nodes    |    Current Node    |     Objective Bounds      |     Work
 Expl Unexpl |  Obj  Depth IntInf | Incumbent    BestBd   Gap | It/Node Time

     0     0   88.00000    0    -          -   88.00000      -     -    0s
     0     0   89.00000    0    -          -   89.00000      -     -    0s
     0     0   89.50000    0    4          -   89.50000      -     -    0s
     0     0  131.00000    0    -          -  131.00000      -     -    0s
     0     0  131.00000    0    -          -  131.00000      -     -    0s
     0     0  131.00000    0    -          -  131.00000      -     -    0s
     0     0  131.00000    0    -          -  131.00000      -     -    0s
H    0     0                     273.0000000  131.00000  52.0%     -    0s
     0     0  131.00000    0    4  273.00000  131.00000  52.0%     -    0s
     0     0  139.00000    0    -  273.00000  139.00000  49.1%     -    0s
     0     0  139.00000    0    -  273.00000  139.00000  49.1%     -    0s
     0     0  139.00000    0    -  273.00000  139.00000  49.1%     -    0s
H    0     0                     229.0000000  139.00000  39.3%     -    0s
     0     0  139.00000    0    5  229.00000  139.00000  39.3%     -    0s
     0     0  146.00000    0    -  229.00000  146.00000  36.2%     -    0s
H    0     0                     227.0000000  146.33333  35.5%     -    0s
     0     0  146.33333    0    5  227.00000  146.33333  35.5%     -    0s
H    0     0                     200.0000000  146.33333  26.8%     -    0s
     0     2  153.00000    0    4  200.00000  153.00000  23.5%     -    0s
H    8    10                     182.0000000  158.66667  12.8%  21.1    1s
H   36    42                     175.0000000  160.14286  8.49%  27.9    1s
   400   355  164.54545    9   14  175.00000  163.46983  6.59%   8.8    5s
   846   755  167.00000   29    5  175.00000  164.13333  6.21%   7.1   10s
  1192   929  171.76511   19   32  175.00000  169.85128  2.94%   8.5   15s
  1584  1009  173.04818   17   40  175.00000  170.41519  2.62%  12.1   20s
H 1585   952                     174.0000000  170.41519  2.06%  12.1   20s

Cutting planes:
  User: 492
  Gomory: 5
  MIR: 1
  Flow cover: 6
  Zero half: 3
  Lazy constraints: 119

Explored 1903 nodes (26875 simplex iterations) in 21.53 seconds (1.80 work units)
Thread count was 4 (of 4 available processors)

Solution count 7: 174 175 182 ... 273

Optimal solution found (tolerance 1.00e-04)
Best objective 1.740000000000e+02, best bound 1.740000000000e+02, gap 0.0000%

User-callback calls 4894, time in user-callback 20.10 sec
